Route #1: 27 16 35 48 32 36 3
Route #2: 13 49 33 11 55 20 31 30 54 34 2
Route #3: 43 23 50 22 38 9 12 5 40
Route #4: 21 26 4 39 47 42 24 6 53
Route #5: 45 41 29 37 15 7 19
Route #6: 18 10 8 17 14 44 51 28 46
Route #7: 52 1 25
Cost 712